20 1 6
880 989 188 479 852 990 562 455 120 176 944 701 484 645 329 921 862 941 274 732 
712 159 145 726 870 311 554 611 105 93 942 336 82 482 166 933 471 727 739 943 
902 683 643 385 679 971 657 540 911 930 271 623 88 767 700 309 77 606 919 533 
698 213 868 131 46 385 64 516 111 154 810 364 836 452 101 866 774 757 405 685 
39 27 659 478 794 710 787 222 315 57 755 13 621 974 143 666 359 558 182 821 
64 343 185 899 795 637 117 568 393 521 604 783 900 614 261 693 324 47 914 638 
4550 6680 20 760 9940 4970 7410 3520 4060 2740 1720 4690 6170 7080 7200 7630 3440 8360 6820 890 
49320
